instances/knapsack/knapsack_interdiction/knapsack_40_1_5.kp
42
40
3578

686 69.0 786 86.63
379 38.0 479 84.02
599 60.0 699 114.97
471 47.0 571 97.37
937 94.0 1037 195.04
821 82.0 921 175.74
822 82.0 922 174.78
309 31.0 409 41.52
419 42.0 519 71.9
294 29.0 394 42.93
132 13.0 232 34.72
834 83.0 934 150.92
676 68.0 776 132.0
46 5.0 146 25.71
838 84.0 938 112.65
364 36.0 464 90.15
532 53.0 632 107.43
51 5.0 151 29.48
429 43.0 529 69.07
611 61.0 711 120.66
994 99.0 1094 155.19
676 68.0 776 133.75
446 45.0 546 104.47
692 69.0 792 113.53
619 62.0 719 142.86
600 60.0 700 122.02
743 74.0 843 139.77
539 54.0 639 92.71
419 42.0 519 87.3
284 28.0 384 70.67
423 42.0 523 95.88
677 68.0 777 129.88
316 32.0 416 75.5
859 86.0 959 151.39
323 32.0 423 43.81
555 56.0 655 85.21
840 84.0 940 120.88
647 65.0 747 145.94
89 9.0 189 25.39
482 48.0 582 59.11

42
[10348]

[[169, 247, 251, 25, 62, 224, 141, 186, 239, 159, 172, 86, 47, 93, 103, 197, 69, 69, 252, 16, 108, 90, 23, 51, 243, 2, 48, 254, 88, 84, 169, 5, 49, 246, 194, 58, 165, 8, 106, 245]]

[[506, 959, 379, 587, 173, 769, 170, 17, 831, 970, 640, 470, 232, 210, 306, 336, 24, 551, 761, 847, 198, 896, 634, 864, 719, 132, 91, 271, 983, 944, 227, 401, 240, 919, 351, 263, 700, 755, 645, 726]]
