instances/knapsack/knapsack_interdiction/knapsack_40_1_5.lp
\ Model knapsack_40_1_5
\ LP format - for model browsing. Use MPS format to capture full model detail.
\ Signature: 0xe2fdb6dddddb4de2
Minimize
  86.63 x[0] + 84.02 x[1] + 114.97 x[2] + 97.37 x[3] + 195.04 x[4]
   + 175.74 x[5] + 174.78 x[6] + 41.52 x[7] + 71.9 x[8] + 42.93 x[9]
   + 34.72 x[10] + 150.92 x[11] + 132 x[12] + 25.71 x[13] + 112.65 x[14]
   + 90.15 x[15] + 107.43 x[16] + 29.48 x[17] + 69.07 x[18] + 120.66 x[19]
   + 155.19 x[20] + 133.75 x[21] + 104.47 x[22] + 113.53 x[23]
   + 142.86 x[24] + 122.02 x[25] + 139.77 x[26] + 92.71 x[27] + 87.3 x[28]
   + 70.67 x[29] + 95.88 x[30] + 129.88 x[31] + 75.5 x[32] + 151.39 x[33]
   + 43.81 x[34] + 85.21 x[35] + 120.88 x[36] + 145.94 x[37] + 25.39 x[38]
   + 59.11 x[39] - 786 y[0] - 479 y[1] - 699 y[2] - 571 y[3] - 1037 y[4]
   - 921 y[5] - 922 y[6] - 409 y[7] - 519 y[8] - 394 y[9] - 232 y[10]
   - 934 y[11] - 776 y[12] - 146 y[13] - 938 y[14] - 464 y[15] - 632 y[16]
   - 151 y[17] - 529 y[18] - 711 y[19] - 1094 y[20] - 776 y[21] - 546 y[22]
   - 792 y[23] - 719 y[24] - 700 y[25] - 843 y[26] - 639 y[27] - 519 y[28]
   - 384 y[29] - 523 y[30] - 777 y[31] - 416 y[32] - 959 y[33] - 423 y[34]
   - 655 y[35] - 940 y[36] - 747 y[37] - 189 y[38] - 582 y[39]
Subject To
 primal_upper: 686 y[0] + 379 y[1] + 599 y[2] + 471 y[3] + 937 y[4]
   + 821 y[5] + 822 y[6] + 309 y[7] + 419 y[8] + 294 y[9] + 132 y[10]
   + 834 y[11] + 676 y[12] + 46 y[13] + 838 y[14] + 364 y[15] + 532 y[16]
   + 51 y[17] + 429 y[18] + 611 y[19] + 994 y[20] + 676 y[21] + 446 y[22]
   + 692 y[23] + 619 y[24] + 600 y[25] + 743 y[26] + 539 y[27] + 419 y[28]
   + 284 y[29] + 423 y[30] + 677 y[31] + 316 y[32] + 859 y[33] + 323 y[34]
   + 555 y[35] + 840 y[36] + 647 y[37] + 89 y[38] + 482 y[39] + 69 z[0]
   + 38 z[1] + 60 z[2] + 47 z[3] + 94 z[4] + 82 z[5] + 82 z[6] + 31 z[7]
   + 42 z[8] + 29 z[9] + 13 z[10] + 83 z[11] + 68 z[12] + 5 z[13]
   + 84 z[14] + 36 z[15] + 53 z[16] + 5 z[17] + 43 z[18] + 61 z[19]
   + 99 z[20] + 68 z[21] + 45 z[22] + 69 z[23] + 62 z[24] + 60 z[25]
   + 74 z[26] + 54 z[27] + 42 z[28] + 28 z[29] + 42 z[30] + 68 z[31]
   + 32 z[32] + 86 z[33] + 32 z[34] + 56 z[35] + 84 z[36] + 65 z[37]
   + 9 z[38] + 48 z[39] <= 3578
 primal_lower0: 506 u[0] + 959 u[1] + 379 u[2] + 587 u[3] + 173 u[4]
   + 769 u[5] + 170 u[6] + 17 u[7] + 831 u[8] + 970 u[9] + 640 u[10]
   + 470 u[11] + 232 u[12] + 210 u[13] + 306 u[14] + 336 u[15] + 24 u[16]
   + 551 u[17] + 761 u[18] + 847 u[19] + 198 u[20] + 896 u[21] + 634 u[22]
   + 864 u[23] + 719 u[24] + 132 u[25] + 91 u[26] + 271 u[27] + 983 u[28]
   + 944 u[29] + 227 u[30] + 401 u[31] + 240 u[32] + 919 u[33] + 351 u[34]
   + 263 u[35] + 700 u[36] + 755 u[37] + 645 u[38] + 726 u[39] <= 10348
 interdiction[0]: x[0] + u[0] <= 1
 interdiction[1]: x[1] + u[1] <= 1
 interdiction[2]: x[2] + u[2] <= 1
 interdiction[3]: x[3] + u[3] <= 1
 interdiction[4]: x[4] + u[4] <= 1
 interdiction[5]: x[5] + u[5] <= 1
 interdiction[6]: x[6] + u[6] <= 1
 interdiction[7]: x[7] + u[7] <= 1
 interdiction[8]: x[8] + u[8] <= 1
 interdiction[9]: x[9] + u[9] <= 1
 interdiction[10]: x[10] + u[10] <= 1
 interdiction[11]: x[11] + u[11] <= 1
 interdiction[12]: x[12] + u[12] <= 1
 interdiction[13]: x[13] + u[13] <= 1
 interdiction[14]: x[14] + u[14] <= 1
 interdiction[15]: x[15] + u[15] <= 1
 interdiction[16]: x[16] + u[16] <= 1
 interdiction[17]: x[17] + u[17] <= 1
 interdiction[18]: x[18] + u[18] <= 1
 interdiction[19]: x[19] + u[19] <= 1
 interdiction[20]: x[20] + u[20] <= 1
 interdiction[21]: x[21] + u[21] <= 1
 interdiction[22]: x[22] + u[22] <= 1
 interdiction[23]: x[23] + u[23] <= 1
 interdiction[24]: x[24] + u[24] <= 1
 interdiction[25]: x[25] + u[25] <= 1
 interdiction[26]: x[26] + u[26] <= 1
 interdiction[27]: x[27] + u[27] <= 1
 interdiction[28]: x[28] + u[28] <= 1
 interdiction[29]: x[29] + u[29] <= 1
 interdiction[30]: x[30] + u[30] <= 1
 interdiction[31]: x[31] + u[31] <= 1
 interdiction[32]: x[32] + u[32] <= 1
 interdiction[33]: x[33] + u[33] <= 1
 interdiction[34]: x[34] + u[34] <= 1
 interdiction[35]: x[35] + u[35] <= 1
 interdiction[36]: x[36] + u[36] <= 1
 interdiction[37]: x[37] + u[37] <= 1
 interdiction[38]: x[38] + u[38] <= 1
 interdiction[39]: x[39] + u[39] <= 1
 mccormick1[0]: - u[0] + z[0] <= 0
 mccormick1[1]: - u[1] + z[1] <= 0
 mccormick1[2]: - u[2] + z[2] <= 0
 mccormick1[3]: - u[3] + z[3] <= 0
 mccormick1[4]: - u[4] + z[4] <= 0
 mccormick1[5]: - u[5] + z[5] <= 0
 mccormick1[6]: - u[6] + z[6] <= 0
 mccormick1[7]: - u[7] + z[7] <= 0
 mccormick1[8]: - u[8] + z[8] <= 0
 mccormick1[9]: - u[9] + z[9] <= 0
 mccormick1[10]: - u[10] + z[10] <= 0
 mccormick1[11]: - u[11] + z[11] <= 0
 mccormick1[12]: - u[12] + z[12] <= 0
 mccormick1[13]: - u[13] + z[13] <= 0
 mccormick1[14]: - u[14] + z[14] <= 0
 mccormick1[15]: - u[15] + z[15] <= 0
 mccormick1[16]: - u[16] + z[16] <= 0
 mccormick1[17]: - u[17] + z[17] <= 0
 mccormick1[18]: - u[18] + z[18] <= 0
 mccormick1[19]: - u[19] + z[19] <= 0
 mccormick1[20]: - u[20] + z[20] <= 0
 mccormick1[21]: - u[21] + z[21] <= 0
 mccormick1[22]: - u[22] + z[22] <= 0
 mccormick1[23]: - u[23] + z[23] <= 0
 mccormick1[24]: - u[24] + z[24] <= 0
 mccormick1[25]: - u[25] + z[25] <= 0
 mccormick1[26]: - u[26] + z[26] <= 0
 mccormick1[27]: - u[27] + z[27] <= 0
 mccormick1[28]: - u[28] + z[28] <= 0
 mccormick1[29]: - u[29] + z[29] <= 0
 mccormick1[30]: - u[30] + z[30] <= 0
 mccormick1[31]: - u[31] + z[31] <= 0
 mccormick1[32]: - u[32] + z[32] <= 0
 mccormick1[33]: - u[33] + z[33] <= 0
 mccormick1[34]: - u[34] + z[34] <= 0
 mccormick1[35]: - u[35] + z[35] <= 0
 mccormick1[36]: - u[36] + z[36] <= 0
 mccormick1[37]: - u[37] + z[37] <= 0
 mccormick1[38]: - u[38] + z[38] <= 0
 mccormick1[39]: - u[39] + z[39] <= 0
 mccormick2[0]: - y[0] + z[0] <= 0
 mccormick2[1]: - y[1] + z[1] <= 0
 mccormick2[2]: - y[2] + z[2] <= 0
 mccormick2[3]: - y[3] + z[3] <= 0
 mccormick2[4]: - y[4] + z[4] <= 0
 mccormick2[5]: - y[5] + z[5] <= 0
 mccormick2[6]: - y[6] + z[6] <= 0
 mccormick2[7]: - y[7] + z[7] <= 0
 mccormick2[8]: - y[8] + z[8] <= 0
 mccormick2[9]: - y[9] + z[9] <= 0
 mccormick2[10]: - y[10] + z[10] <= 0
 mccormick2[11]: - y[11] + z[11] <= 0
 mccormick2[12]: - y[12] + z[12] <= 0
 mccormick2[13]: - y[13] + z[13] <= 0
 mccormick2[14]: - y[14] + z[14] <= 0
 mccormick2[15]: - y[15] + z[15] <= 0
 mccormick2[16]: - y[16] + z[16] <= 0
 mccormick2[17]: - y[17] + z[17] <= 0
 mccormick2[18]: - y[18] + z[18] <= 0
 mccormick2[19]: - y[19] + z[19] <= 0
 mccormick2[20]: - y[20] + z[20] <= 0
 mccormick2[21]: - y[21] + z[21] <= 0
 mccormick2[22]: - y[22] + z[22] <= 0
 mccormick2[23]: - y[23] + z[23] <= 0
 mccormick2[24]: - y[24] + z[24] <= 0
 mccormick2[25]: - y[25] + z[25] <= 0
 mccormick2[26]: - y[26] + z[26] <= 0
 mccormick2[27]: - y[27] + z[27] <= 0
 mccormick2[28]: - y[28] + z[28] <= 0
 mccormick2[29]: - y[29] + z[29] <= 0
 mccormick2[30]: - y[30] + z[30] <= 0
 mccormick2[31]: - y[31] + z[31] <= 0
 mccormick2[32]: - y[32] + z[32] <= 0
 mccormick2[33]: - y[33] + z[33] <= 0
 mccormick2[34]: - y[34] + z[34] <= 0
 mccormick2[35]: - y[35] + z[35] <= 0
 mccormick2[36]: - y[36] + z[36] <= 0
 mccormick2[37]: - y[37] + z[37] <= 0
 mccormick2[38]: - y[38] + z[38] <= 0
 mccormick2[39]: - y[39] + z[39] <= 0
 mccormick3[0]: y[0] + u[0] - z[0] <= 1
 mccormick3[1]: y[1] + u[1] - z[1] <= 1
 mccormick3[2]: y[2] + u[2] - z[2] <= 1
 mccormick3[3]: y[3] + u[3] - z[3] <= 1
 mccormick3[4]: y[4] + u[4] - z[4] <= 1
 mccormick3[5]: y[5] + u[5] - z[5] <= 1
 mccormick3[6]: y[6] + u[6] - z[6] <= 1
 mccormick3[7]: y[7] + u[7] - z[7] <= 1
 mccormick3[8]: y[8] + u[8] - z[8] <= 1
 mccormick3[9]: y[9] + u[9] - z[9] <= 1
 mccormick3[10]: y[10] + u[10] - z[10] <= 1
 mccormick3[11]: y[11] + u[11] - z[11] <= 1
 mccormick3[12]: y[12] + u[12] - z[12] <= 1
 mccormick3[13]: y[13] + u[13] - z[13] <= 1
 mccormick3[14]: y[14] + u[14] - z[14] <= 1
 mccormick3[15]: y[15] + u[15] - z[15] <= 1
 mccormick3[16]: y[16] + u[16] - z[16] <= 1
 mccormick3[17]: y[17] + u[17] - z[17] <= 1
 mccormick3[18]: y[18] + u[18] - z[18] <= 1
 mccormick3[19]: y[19] + u[19] - z[19] <= 1
 mccormick3[20]: y[20] + u[20] - z[20] <= 1
 mccormick3[21]: y[21] + u[21] - z[21] <= 1
 mccormick3[22]: y[22] + u[22] - z[22] <= 1
 mccormick3[23]: y[23] + u[23] - z[23] <= 1
 mccormick3[24]: y[24] + u[24] - z[24] <= 1
 mccormick3[25]: y[25] + u[25] - z[25] <= 1
 mccormick3[26]: y[26] + u[26] - z[26] <= 1
 mccormick3[27]: y[27] + u[27] - z[27] <= 1
 mccormick3[28]: y[28] + u[28] - z[28] <= 1
 mccormick3[29]: y[29] + u[29] - z[29] <= 1
 mccormick3[30]: y[30] + u[30] - z[30] <= 1
 mccormick3[31]: y[31] + u[31] - z[31] <= 1
 mccormick3[32]: y[32] + u[32] - z[32] <= 1
 mccormick3[33]: y[33] + u[33] - z[33] <= 1
 mccormick3[34]: y[34] + u[34] - z[34] <= 1
 mccormick3[35]: y[35] + u[35] - z[35] <= 1
 mccormick3[36]: y[36] + u[36] - z[36] <= 1
 mccormick3[37]: y[37] + u[37] - z[37] <= 1
 mccormick3[38]: y[38] + u[38] - z[38] <= 1
 mccormick3[39]: y[39] + u[39] - z[39] <= 1
Bounds
Binaries
 x[0] x[1] x[2] x[3] x[4] x[5] x[6] x[7] x[8] x[9] x[10] x[11] x[12] x[13]
 x[14] x[15] x[16] x[17] x[18] x[19] x[20] x[21] x[22] x[23] x[24] x[25]
 x[26] x[27] x[28] x[29] x[30] x[31] x[32] x[33] x[34] x[35] x[36] x[37]
 x[38] x[39] y[0] y[1] y[2] y[3] y[4] y[5] y[6] y[7] y[8] y[9] y[10] y[11]
 y[12] y[13] y[14] y[15] y[16] y[17] y[18] y[19] y[20] y[21] y[22] y[23]
 y[24] y[25] y[26] y[27] y[28] y[29] y[30] y[31] y[32] y[33] y[34] y[35]
 y[36] y[37] y[38] y[39] u[0] u[1] u[2] u[3] u[4] u[5] u[6] u[7] u[8] u[9]
 u[10] u[11] u[12] u[13] u[14] u[15] u[16] u[17] u[18] u[19] u[20] u[21]
 u[22] u[23] u[24] u[25] u[26] u[27] u[28] u[29] u[30] u[31] u[32] u[33]
 u[34] u[35] u[36] u[37] u[38] u[39] z[0] z[1] z[2] z[3] z[4] z[5] z[6]
 z[7] z[8] z[9] z[10] z[11] z[12] z[13] z[14] z[15] z[16] z[17] z[18] z[19]
 z[20] z[21] z[22] z[23] z[24] z[25] z[26] z[27] z[28] z[29] z[30] z[31]
 z[32] z[33] z[34] z[35] z[36] z[37] z[38] z[39]
End
